g3 0 1 0	# problem hanging
 288 180 1 0 0	# vars, constraints, objectives, ranges, eqns
 180 0	# nonlinear constraints, objectives
 0 0	# network constraints: nonlinear, linear
 288 0 0	# nonlinear vars in constraints, objectives, both
 0 0 0 1	# linear network variables; functions; arith, flags
 0 0 0 0 0	# discrete variables: binary, integer, nonlinear (b,c,o)
 1056 96	# nonzeros in Jacobian, gradients
 0 0	# max name lengths: constraints, variables
 0 0 0 0 0	# common exprs: b,c,o,c1,o1
b
3
3
3
3
3
3
3
3
3
3
3
3
3
3
3
3
3
3
3
3
3
3
3
3
3
3
3
3
3
3
3
3
3
3
3
3
3
3
3
3
3
3
3
3
3
3
3
3
3
3
3
3
3
3
3
3
3
3
3
3
3
3
3
3
3
3
3
3
3
3
3
3
3
3
3
3
3
3
3
3
3
3
3
3
3
3
3
3
3
3
3
3
3
3
3
3
3
3
3
3
3
3
3
3
3
3
3
3
3
3
3
3
3
3
3
3
3
3
3
3
3
3
3
3
3
3
3
3
3
3
3
3
3
3
3
3
3
3
3
3
3
3
3
3
3
3
3
3
3
3
3
3
3
3
3
3
3
3
3
3
3
3
3
3
3
3
3
3
3
3
3
3
3
3
3
3
3
3
3
3
3
3
3
3
3
3
3
3
3
3
3
3
3
3
3
3
3
3
3
3
3
3
3
3
3
3
3
3
3
3
3
3
3
3
3
3
3
3
3
3
3
3
3
3
3
3
3
3
3
3
3
3
3
3
3
3
3
3
3
3
3
3
3
3
3
3
3
3
3
3
3
3
3
3
3
3
3
3
3
3
3
3
3
3
3
3
3
3
3
3
3
3
3
3
3
3
3
3
3
3
3
3
3
3
3
3
3
3
x176
1 1
4 2
7 3
10 4
13 5
16 6
19 7
22 8
24 1
27 1
28 1
30 1
31 2
33 1
34 3
36 1
37 4
39 1
40 5
42 1
43 6
45 1
46 7
48 1
49 8
51 1
52 9
54 2
57 2
58 1
60 2
61 2
63 2
64 3
66 2
67 4
69 2
70 5
72 2
73 6
75 2
76 7
78 2
79 8
81 2
82 9
84 3
87 3
88 1
90 3
91 2
93 3
94 3
96 3
97 4
99 3
100 5
102 3
103 6
105 3
106 7
108 3
109 8
111 3
112 9
114 4
117 4
118 1
120 4
121 2
123 4
124 3
126 4
127 4
129 4
130 5
132 4
133 6
135 4
136 7
138 4
139 8
141 4
142 9
144 5
147 5
148 1
150 5
151 2
153 5
154 3
156 5
157 4
159 5
160 5
162 5
163 6
165 5
166 7
168 5
169 8
171 5
172 9
174 6
177 6
178 1
180 6
181 2
183 6
184 3
186 6
187 4
189 6
190 5
192 6
193 6
195 6
196 7
198 6
199 8
201 6
202 9
204 7
207 7
208 1
210 7
211 2
213 7
214 3
216 7
217 4
219 7
220 5
222 7
223 6
225 7
226 7
228 7
229 8
231 7
232 9
234 8
237 8
238 1
240 8
241 2
243 8
244 3
246 8
247 4
249 8
250 5
252 8
253 6
255 8
256 7
258 8
259 8
261 8
262 9
264 9
265 1
267 9
268 2
270 9
271 3
273 9
274 4
276 9
277 5
279 9
280 6
282 9
283 7
285 9
286 8
r
2 -3.24
2 -3.24
2 -3.24
2 -3.24
2 -3.24
2 -3.24
2 -3.24
2 -3.24
2 -3.24
2 -3.24
2 -3.24
2 -3.24
2 -3.24
2 -3.24
2 -3.24
2 -3.24
2 -3.24
2 -3.24
2 -3.24
2 -3.24
2 -3.24
2 -3.24
2 -3.24
2 -3.24
2 -3.24
2 -3.24
2 -3.24
2 -3.24
2 -3.24
2 -3.24
2 -3.24
2 -3.24
2 -3.24
2 -3.24
2 -3.24
2 -3.24
2 -3.24
2 -3.24
2 -3.24
2 -3.24
2 -3.24
2 -3.24
2 -3.24
2 -3.24
2 -3.24
2 -3.24
2 -3.24
2 -3.24
2 -3.24
2 -3.24
2 -3.24
2 -3.24
2 -3.24
2 -3.24
2 -3.24
2 -3.24
2 -3.24
2 -3.24
2 -3.24
2 -3.24
2 -3.24
2 -3.24
2 -3.24
2 -3.24
2 -3.24
2 -3.24
2 -3.24
2 -3.24
2 -3.24
2 -3.24
2 -3.24
2 -3.24
2 -3.24
2 -3.24
2 -3.24
2 -3.24
2 -3.24
2 -3.24
2 -3.24
2 -3.24
2 -3.24
2 -3.24
2 -3.24
2 -3.24
2 -3.24
2 -3.24
2 -3.24
2 -3.24
2 -3.24
2 -3.24
2 -3.24
2 -3.24
2 -3.24
2 -3.24
2 -3.24
2 -3.24
2 -3.24
2 -3.24
2 -3.24
2 -3.24
2 -3.24
2 -3.24
2 -3.24
2 -3.24
2 -3.24
2 -3.24
2 -3.24
2 -3.24
2 -3.24
2 -3.24
2 -3.24
2 -3.24
2 -3.24
2 -3.24
2 -3.24
2 -3.24
2 -3.24
2 -3.24
2 -3.24
2 -3.24
2 -3.24
2 -3.24
2 -3.24
2 -3.24
2 -3.24
2 -3.24
2 -3.24
2 -3.24
2 -3.24
2 -3.24
2 -3.24
2 -3.24
2 -3.24
2 -3.24
2 -3.24
2 -3.24
2 -3.24
2 -3.24
2 -3.24
2 -3.24
2 -3.24
2 -3.24
2 -3.24
2 -3.24
2 -3.24
2 -3.24
2 -3.24
2 -3.24
2 -3.24
2 -3.24
2 -3.24
2 -3.24
2 -3.24
2 -3.24
2 -3.24
2 -3.24
2 -3.24
2 -3.24
2 -3.24
2 -3.24
2 -3.24
2 -3.24
2 -3.24
2 -3.24
2 -3.24
2 -3.24
2 -3.24
2 -3.24
2 -3.24
2 -3.24
2 -3.24
2 -3.24
2 -3.24
2 -3.24
2 -3.24
2 -3.24
2 -3.24
2 -3.24
2 -3.24
2 -3.24
C0
o16
o54
3
o2
v0
v0
o2
v1
v1
o2
v2
v2
C1
o16
o54
3
o2
o1
v0
v3
o1
v0
v3
o2
o1
v1
v4
o1
v1
v4
o2
o1
v2
v5
o1
v2
v5
C2
o16
o54
3
o2
o1
v3
v6
o1
v3
v6
o2
o1
v4
v7
o1
v4
v7
o2
o1
v5
v8
o1
v5
v8
C3
o16
o54
3
o2
o1
v6
v9
o1
v6
v9
o2
o1
v7
v10
o1
v7
v10
o2
o1
v8
v11
o1
v8
v11
C4
o16
o54
3
o2
o1
v9
v12
o1
v9
v12
o2
o1
v10
v13
o1
v10
v13
o2
o1
v11
v14
o1
v11
v14
C5
o16
o54
3
o2
o1
v12
v15
o1
v12
v15
o2
o1
v13
v16
o1
v13
v16
o2
o1
v14
v17
o1
v14
v17
C6
o16
o54
3
o2
o1
v15
v18
o1
v15
v18
o2
o1
v16
v19
o1
v16
v19
o2
o1
v17
v20
o1
v17
v20
C7
o16
o54
3
o2
o1
v18
v21
o1
v18
v21
o2
o1
v19
v22
o1
v19
v22
o2
o1
v20
v23
o1
v20
v23
C8
o16
o54
3
o2
v21
v21
o2
o0
n-10
v22
o0
n-10
v22
o2
v23
v23
C9
o16
o54
3
o2
o1
v24
v27
o1
v24
v27
o2
o1
v25
v28
o1
v25
v28
o2
o1
v26
v29
o1
v26
v29
C10
o16
o54
3
o2
o1
v27
v30
o1
v27
v30
o2
o1
v28
v31
o1
v28
v31
o2
o1
v29
v32
o1
v29
v32
C11
o16
o54
3
o2
o1
v30
v33
o1
v30
v33
o2
o1
v31
v34
o1
v31
v34
o2
o1
v32
v35
o1
v32
v35
C12
o16
o54
3
o2
o1
v33
v36
o1
v33
v36
o2
o1
v34
v37
o1
v34
v37
o2
o1
v35
v38
o1
v35
v38
C13
o16
o54
3
o2
o1
v36
v39
o1
v36
v39
o2
o1
v37
v40
o1
v37
v40
o2
o1
v38
v41
o1
v38
v41
C14
o16
o54
3
o2
o1
v39
v42
o1
v39
v42
o2
o1
v40
v43
o1
v40
v43
o2
o1
v41
v44
o1
v41
v44
C15
o16
o54
3
o2
o1
v42
v45
o1
v42
v45
o2
o1
v43
v46
o1
v43
v46
o2
o1
v44
v47
o1
v44
v47
C16
o16
o54
3
o2
o1
v45
v48
o1
v45
v48
o2
o1
v46
v49
o1
v46
v49
o2
o1
v47
v50
o1
v47
v50
C17
o16
o54
3
o2
o1
v48
v51
o1
v48
v51
o2
o1
v49
v52
o1
v49
v52
o2
o1
v50
v53
o1
v50
v53
C18
o16
o54
3
o2
o1
v54
v57
o1
v54
v57
o2
o1
v55
v58
o1
v55
v58
o2
o1
v56
v59
o1
v56
v59
C19
o16
o54
3
o2
o1
v57
v60
o1
v57
v60
o2
o1
v58
v61
o1
v58
v61
o2
o1
v59
v62
o1
v59
v62
C20
o16
o54
3
o2
o1
v60
v63
o1
v60
v63
o2
o1
v61
v64
o1
v61
v64
o2
o1
v62
v65
o1
v62
v65
C21
o16
o54
3
o2
o1
v63
v66
o1
v63
v66
o2
o1
v64
v67
o1
v64
v67
o2
o1
v65
v68
o1
v65
v68
C22
o16
o54
3
o2
o1
v66
v69
o1
v66
v69
o2
o1
v67
v70
o1
v67
v70
o2
o1
v68
v71
o1
v68
v71
C23
o16
o54
3
o2
o1
v69
v72
o1
v69
v72
o2
o1
v70
v73
o1
v70
v73
o2
o1
v71
v74
o1
v71
v74
C24
o16
o54
3
o2
o1
v72
v75
o1
v72
v75
o2
o1
v73
v76
o1
v73
v76
o2
o1
v74
v77
o1
v74
v77
C25
o16
o54
3
o2
o1
v75
v78
o1
v75
v78
o2
o1
v76
v79
o1
v76
v79
o2
o1
v77
v80
o1
v77
v80
C26
o16
o54
3
o2
o1
v78
v81
o1
v78
v81
o2
o1
v79
v82
o1
v79
v82
o2
o1
v80
v83
o1
v80
v83
C27
o16
o54
3
o2
o1
v84
v87
o1
v84
v87
o2
o1
v85
v88
o1
v85
v88
o2
o1
v86
v89
o1
v86
v89
C28
o16
o54
3
o2
o1
v87
v90
o1
v87
v90
o2
o1
v88
v91
o1
v88
v91
o2
o1
v89
v92
o1
v89
v92
C29
o16
o54
3
o2
o1
v90
v93
o1
v90
v93
o2
o1
v91
v94
o1
v91
v94
o2
o1
v92
v95
o1
v92
v95
C30
o16
o54
3
o2
o1
v93
v96
o1
v93
v96
o2
o1
v94
v97
o1
v94
v97
o2
o1
v95
v98
o1
v95
v98
C31
o16
o54
3
o2
o1
v96
v99
o1
v96
v99
o2
o1
v97
v100
o1
v97
v100
o2
o1
v98
v101
o1
v98
v101
C32
o16
o54
3
o2
o1
v99
v102
o1
v99
v102
o2
o1
v100
v103
o1
v100
v103
o2
o1
v101
v104
o1
v101
v104
C33
o16
o54
3
o2
o1
v102
v105
o1
v102
v105
o2
o1
v103
v106
o1
v103
v106
o2
o1
v104
v107
o1
v104
v107
C34
o16
o54
3
o2
o1
v105
v108
o1
v105
v108
o2
o1
v106
v109
o1
v106
v109
o2
o1
v107
v110
o1
v107
v110
C35
o16
o54
3
o2
o1
v108
v111
o1
v108
v111
o2
o1
v109
v112
o1
v109
v112
o2
o1
v110
v113
o1
v110
v113
C36
o16
o54
3
o2
o1
v114
v117
o1
v114
v117
o2
o1
v115
v118
o1
v115
v118
o2
o1
v116
v119
o1
v116
v119
C37
o16
o54
3
o2
o1
v117
v120
o1
v117
v120
o2
o1
v118
v121
o1
v118
v121
o2
o1
v119
v122
o1
v119
v122
C38
o16
o54
3
o2
o1
v120
v123
o1
v120
v123
o2
o1
v121
v124
o1
v121
v124
o2
o1
v122
v125
o1
v122
v125
C39
o16
o54
3
o2
o1
v123
v126
o1
v123
v126
o2
o1
v124
v127
o1
v124
v127
o2
o1
v125
v128
o1
v125
v128
C40
o16
o54
3
o2
o1
v126
v129
o1
v126
v129
o2
o1
v127
v130
o1
v127
v130
o2
o1
v128
v131
o1
v128
v131
C41
o16
o54
3
o2
o1
v129
v132
o1
v129
v132
o2
o1
v130
v133
o1
v130
v133
o2
o1
v131
v134
o1
v131
v134
C42
o16
o54
3
o2
o1
v132
v135
o1
v132
v135
o2
o1
v133
v136
o1
v133
v136
o2
o1
v134
v137
o1
v134
v137
C43
o16
o54
3
o2
o1
v135
v138
o1
v135
v138
o2
o1
v136
v139
o1
v136
v139
o2
o1
v137
v140
o1
v137
v140
C44
o16
o54
3
o2
o1
v138
v141
o1
v138
v141
o2
o1
v139
v142
o1
v139
v142
o2
o1
v140
v143
o1
v140
v143
C45
o16
o54
3
o2
o1
v144
v147
o1
v144
v147
o2
o1
v145
v148
o1
v145
v148
o2
o1
v146
v149
o1
v146
v149
C46
o16
o54
3
o2
o1
v147
v150
o1
v147
v150
o2
o1
v148
v151
o1
v148
v151
o2
o1
v149
v152
o1
v149
v152
C47
o16
o54
3
o2
o1
v150
v153
o1
v150
v153
o2
o1
v151
v154
o1
v151
v154
o2
o1
v152
v155
o1
v152
v155
C48
o16
o54
3
o2
o1
v153
v156
o1
v153
v156
o2
o1
v154
v157
o1
v154
v157
o2
o1
v155
v158
o1
v155
v158
C49
o16
o54
3
o2
o1
v156
v159
o1
v156
v159
o2
o1
v157
v160
o1
v157
v160
o2
o1
v158
v161
o1
v158
v161
C50
o16
o54
3
o2
o1
v159
v162
o1
v159
v162
o2
o1
v160
v163
o1
v160
v163
o2
o1
v161
v164
o1
v161
v164
C51
o16
o54
3
o2
o1
v162
v165
o1
v162
v165
o2
o1
v163
v166
o1
v163
v166
o2
o1
v164
v167
o1
v164
v167
C52
o16
o54
3
o2
o1
v165
v168
o1
v165
v168
o2
o1
v166
v169
o1
v166
v169
o2
o1
v167
v170
o1
v167
v170
C53
o16
o54
3
o2
o1
v168
v171
o1
v168
v171
o2
o1
v169
v172
o1
v169
v172
o2
o1
v170
v173
o1
v170
v173
C54
o16
o54
3
o2
o1
v174
v177
o1
v174
v177
o2
o1
v175
v178
o1
v175
v178
o2
o1
v176
v179
o1
v176
v179
C55
o16
o54
3
o2
o1
v177
v180
o1
v177
v180
o2
o1
v178
v181
o1
v178
v181
o2
o1
v179
v182
o1
v179
v182
C56
o16
o54
3
o2
o1
v180
v183
o1
v180
v183
o2
o1
v181
v184
o1
v181
v184
o2
o1
v182
v185
o1
v182
v185
C57
o16
o54
3
o2
o1
v183
v186
o1
v183
v186
o2
o1
v184
v187
o1
v184
v187
o2
o1
v185
v188
o1
v185
v188
C58
o16
o54
3
o2
o1
v186
v189
o1
v186
v189
o2
o1
v187
v190
o1
v187
v190
o2
o1
v188
v191
o1
v188
v191
C59
o16
o54
3
o2
o1
v189
v192
o1
v189
v192
o2
o1
v190
v193
o1
v190
v193
o2
o1
v191
v194
o1
v191
v194
C60
o16
o54
3
o2
o1
v192
v195
o1
v192
v195
o2
o1
v193
v196
o1
v193
v196
o2
o1
v194
v197
o1
v194
v197
C61
o16
o54
3
o2
o1
v195
v198
o1
v195
v198
o2
o1
v196
v199
o1
v196
v199
o2
o1
v197
v200
o1
v197
v200
C62
o16
o54
3
o2
o1
v198
v201
o1
v198
v201
o2
o1
v199
v202
o1
v199
v202
o2
o1
v200
v203
o1
v200
v203
C63
o16
o54
3
o2
o1
v204
v207
o1
v204
v207
o2
o1
v205
v208
o1
v205
v208
o2
o1
v206
v209
o1
v206
v209
C64
o16
o54
3
o2
o1
v207
v210
o1
v207
v210
o2
o1
v208
v211
o1
v208
v211
o2
o1
v209
v212
o1
v209
v212
C65
o16
o54
3
o2
o1
v210
v213
o1
v210
v213
o2
o1
v211
v214
o1
v211
v214
o2
o1
v212
v215
o1
v212
v215
C66
o16
o54
3
o2
o1
v213
v216
o1
v213
v216
o2
o1
v214
v217
o1
v214
v217
o2
o1
v215
v218
o1
v215
v218
C67
o16
o54
3
o2
o1
v216
v219
o1
v216
v219
o2
o1
v217
v220
o1
v217
v220
o2
o1
v218
v221
o1
v218
v221
C68
o16
o54
3
o2
o1
v219
v222
o1
v219
v222
o2
o1
v220
v223
o1
v220
v223
o2
o1
v221
v224
o1
v221
v224
C69
o16
o54
3
o2
o1
v222
v225
o1
v222
v225
o2
o1
v223
v226
o1
v223
v226
o2
o1
v224
v227
o1
v224
v227
C70
o16
o54
3
o2
o1
v225
v228
o1
v225
v228
o2
o1
v226
v229
o1
v226
v229
o2
o1
v227
v230
o1
v227
v230
C71
o16
o54
3
o2
o1
v228
v231
o1
v228
v231
o2
o1
v229
v232
o1
v229
v232
o2
o1
v230
v233
o1
v230
v233
C72
o16
o54
3
o2
o1
v234
v237
o1
v234
v237
o2
o1
v235
v238
o1
v235
v238
o2
o1
v236
v239
o1
v236
v239
C73
o16
o54
3
o2
o1
v237
v240
o1
v237
v240
o2
o1
v238
v241
o1
v238
v241
o2
o1
v239
v242
o1
v239
v242
C74
o16
o54
3
o2
o1
v240
v243
o1
v240
v243
o2
o1
v241
v244
o1
v241
v244
o2
o1
v242
v245
o1
v242
v245
C75
o16
o54
3
o2
o1
v243
v246
o1
v243
v246
o2
o1
v244
v247
o1
v244
v247
o2
o1
v245
v248
o1
v245
v248
C76
o16
o54
3
o2
o1
v246
v249
o1
v246
v249
o2
o1
v247
v250
o1
v247
v250
o2
o1
v248
v251
o1
v248
v251
C77
o16
o54
3
o2
o1
v249
v252
o1
v249
v252
o2
o1
v250
v253
o1
v250
v253
o2
o1
v251
v254
o1
v251
v254
C78
o16
o54
3
o2
o1
v252
v255
o1
v252
v255
o2
o1
v253
v256
o1
v253
v256
o2
o1
v254
v257
o1
v254
v257
C79
o16
o54
3
o2
o1
v255
v258
o1
v255
v258
o2
o1
v256
v259
o1
v256
v259
o2
o1
v257
v260
o1
v257
v260
C80
o16
o54
3
o2
o1
v258
v261
o1
v258
v261
o2
o1
v259
v262
o1
v259
v262
o2
o1
v260
v263
o1
v260
v263
C81
o16
o54
3
o2
o1
n10
v264
o1
n10
v264
o2
v265
v265
o2
v266
v266
C82
o16
o54
3
o2
o1
v264
v267
o1
v264
v267
o2
o1
v265
v268
o1
v265
v268
o2
o1
v266
v269
o1
v266
v269
C83
o16
o54
3
o2
o1
v267
v270
o1
v267
v270
o2
o1
v268
v271
o1
v268
v271
o2
o1
v269
v272
o1
v269
v272
C84
o16
o54
3
o2
o1
v270
v273
o1
v270
v273
o2
o1
v271
v274
o1
v271
v274
o2
o1
v272
v275
o1
v272
v275
C85
o16
o54
3
o2
o1
v273
v276
o1
v273
v276
o2
o1
v274
v277
o1
v274
v277
o2
o1
v275
v278
o1
v275
v278
C86
o16
o54
3
o2
o1
v276
v279
o1
v276
v279
o2
o1
v277
v280
o1
v277
v280
o2
o1
v278
v281
o1
v278
v281
C87
o16
o54
3
o2
o1
v279
v282
o1
v279
v282
o2
o1
v280
v283
o1
v280
v283
o2
o1
v281
v284
o1
v281
v284
C88
o16
o54
3
o2
o1
v282
v285
o1
v282
v285
o2
o1
v283
v286
o1
v283
v286
o2
o1
v284
v287
o1
v284
v287
C89
o16
o54
3
o2
o0
n-10
v285
o0
n-10
v285
o2
o0
n-10
v286
o0
n-10
v286
o2
v287
v287
C90
o16
o54
3
o2
v24
v24
o2
v25
v25
o2
v26
v26
C91
o16
o54
3
o2
o1
v0
v27
o1
v0
v27
o2
o1
v1
v28
o1
v1
v28
o2
o1
v2
v29
o1
v2
v29
C92
o16
o54
3
o2
o1
v3
v30
o1
v3
v30
o2
o1
v4
v31
o1
v4
v31
o2
o1
v5
v32
o1
v5
v32
C93
o16
o54
3
o2
o1
v6
v33
o1
v6
v33
o2
o1
v7
v34
o1
v7
v34
o2
o1
v8
v35
o1
v8
v35
C94
o16
o54
3
o2
o1
v9
v36
o1
v9
v36
o2
o1
v10
v37
o1
v10
v37
o2
o1
v11
v38
o1
v11
v38
C95
o16
o54
3
o2
o1
v12
v39
o1
v12
v39
o2
o1
v13
v40
o1
v13
v40
o2
o1
v14
v41
o1
v14
v41
C96
o16
o54
3
o2
o1
v15
v42
o1
v15
v42
o2
o1
v16
v43
o1
v16
v43
o2
o1
v17
v44
o1
v17
v44
C97
o16
o54
3
o2
o1
v18
v45
o1
v18
v45
o2
o1
v19
v46
o1
v19
v46
o2
o1
v20
v47
o1
v20
v47
C98
o16
o54
3
o2
o1
v21
v48
o1
v21
v48
o2
o1
v22
v49
o1
v22
v49
o2
o1
v23
v50
o1
v23
v50
C99
o16
o54
3
o2
v51
v51
o2
o1
n10
v52
o1
n10
v52
o2
v53
v53
C100
o16
o54
3
o2
o1
v24
v54
o1
v24
v54
o2
o1
v25
v55
o1
v25
v55
o2
o1
v26
v56
o1
v26
v56
C101
o16
o54
3
o2
o1
v27
v57
o1
v27
v57
o2
o1
v28
v58
o1
v28
v58
o2
o1
v29
v59
o1
v29
v59
C102
o16
o54
3
o2
o1
v30
v60
o1
v30
v60
o2
o1
v31
v61
o1
v31
v61
o2
o1
v32
v62
o1
v32
v62
C103
o16
o54
3
o2
o1
v33
v63
o1
v33
v63
o2
o1
v34
v64
o1
v34
v64
o2
o1
v35
v65
o1
v35
v65
C104
o16
o54
3
o2
o1
v36
v66
o1
v36
v66
o2
o1
v37
v67
o1
v37
v67
o2
o1
v38
v68
o1
v38
v68
C105
o16
o54
3
o2
o1
v39
v69
o1
v39
v69
o2
o1
v40
v70
o1
v40
v70
o2
o1
v41
v71
o1
v41
v71
C106
o16
o54
3
o2
o1
v42
v72
o1
v42
v72
o2
o1
v43
v73
o1
v43
v73
o2
o1
v44
v74
o1
v44
v74
C107
o16
o54
3
o2
o1
v45
v75
o1
v45
v75
o2
o1
v46
v76
o1
v46
v76
o2
o1
v47
v77
o1
v47
v77
C108
o16
o54
3
o2
o1
v48
v78
o1
v48
v78
o2
o1
v49
v79
o1
v49
v79
o2
o1
v50
v80
o1
v50
v80
C109
o16
o54
3
o2
o1
v51
v81
o1
v51
v81
o2
o1
v52
v82
o1
v52
v82
o2
o1
v53
v83
o1
v53
v83
C110
o16
o54
3
o2
o1
v54
v84
o1
v54
v84
o2
o1
v55
v85
o1
v55
v85
o2
o1
v56
v86
o1
v56
v86
C111
o16
o54
3
o2
o1
v57
v87
o1
v57
v87
o2
o1
v58
v88
o1
v58
v88
o2
o1
v59
v89
o1
v59
v89
C112
o16
o54
3
o2
o1
v60
v90
o1
v60
v90
o2
o1
v61
v91
o1
v61
v91
o2
o1
v62
v92
o1
v62
v92
C113
o16
o54
3
o2
o1
v63
v93
o1
v63
v93
o2
o1
v64
v94
o1
v64
v94
o2
o1
v65
v95
o1
v65
v95
C114
o16
o54
3
o2
o1
v66
v96
o1
v66
v96
o2
o1
v67
v97
o1
v67
v97
o2
o1
v68
v98
o1
v68
v98
C115
o16
o54
3
o2
o1
v69
v99
o1
v69
v99
o2
o1
v70
v100
o1
v70
v100
o2
o1
v71
v101
o1
v71
v101
C116
o16
o54
3
o2
o1
v72
v102
o1
v72
v102
o2
o1
v73
v103
o1
v73
v103
o2
o1
v74
v104
o1
v74
v104
C117
o16
o54
3
o2
o1
v75
v105
o1
v75
v105
o2
o1
v76
v106
o1
v76
v106
o2
o1
v77
v107
o1
v77
v107
C118
o16
o54
3
o2
o1
v78
v108
o1
v78
v108
o2
o1
v79
v109
o1
v79
v109
o2
o1
v80
v110
o1
v80
v110
C119
o16
o54
3
o2
o1
v81
v111
o1
v81
v111
o2
o1
v82
v112
o1
v82
v112
o2
o1
v83
v113
o1
v83
v113
C120
o16
o54
3
o2
o1
v84
v114
o1
v84
v114
o2
o1
v85
v115
o1
v85
v115
o2
o1
v86
v116
o1
v86
v116
C121
o16
o54
3
o2
o1
v87
v117
o1
v87
v117
o2
o1
v88
v118
o1
v88
v118
o2
o1
v89
v119
o1
v89
v119
C122
o16
o54
3
o2
o1
v90
v120
o1
v90
v120
o2
o1
v91
v121
o1
v91
v121
o2
o1
v92
v122
o1
v92
v122
C123
o16
o54
3
o2
o1
v93
v123
o1
v93
v123
o2
o1
v94
v124
o1
v94
v124
o2
o1
v95
v125
o1
v95
v125
C124
o16
o54
3
o2
o1
v96
v126
o1
v96
v126
o2
o1
v97
v127
o1
v97
v127
o2
o1
v98
v128
o1
v98
v128
C125
o16
o54
3
o2
o1
v99
v129
o1
v99
v129
o2
o1
v100
v130
o1
v100
v130
o2
o1
v101
v131
o1
v101
v131
C126
o16
o54
3
o2
o1
v102
v132
o1
v102
v132
o2
o1
v103
v133
o1
v103
v133
o2
o1
v104
v134
o1
v104
v134
C127
o16
o54
3
o2
o1
v105
v135
o1
v105
v135
o2
o1
v106
v136
o1
v106
v136
o2
o1
v107
v137
o1
v107
v137
C128
o16
o54
3
o2
o1
v108
v138
o1
v108
v138
o2
o1
v109
v139
o1
v109
v139
o2
o1
v110
v140
o1
v110
v140
C129
o16
o54
3
o2
o1
v111
v141
o1
v111
v141
o2
o1
v112
v142
o1
v112
v142
o2
o1
v113
v143
o1
v113
v143
C130
o16
o54
3
o2
o1
v114
v144
o1
v114
v144
o2
o1
v115
v145
o1
v115
v145
o2
o1
v116
v146
o1
v116
v146
C131
o16
o54
3
o2
o1
v117
v147
o1
v117
v147
o2
o1
v118
v148
o1
v118
v148
o2
o1
v119
v149
o1
v119
v149
C132
o16
o54
3
o2
o1
v120
v150
o1
v120
v150
o2
o1
v121
v151
o1
v121
v151
o2
o1
v122
v152
o1
v122
v152
C133
o16
o54
3
o2
o1
v123
v153
o1
v123
v153
o2
o1
v124
v154
o1
v124
v154
o2
o1
v125
v155
o1
v125
v155
C134
o16
o54
3
o2
o1
v126
v156
o1
v126
v156
o2
o1
v127
v157
o1
v127
v157
o2
o1
v128
v158
o1
v128
v158
C135
o16
o54
3
o2
o1
v129
v159
o1
v129
v159
o2
o1
v130
v160
o1
v130
v160
o2
o1
v131
v161
o1
v131
v161
C136
o16
o54
3
o2
o1
v132
v162
o1
v132
v162
o2
o1
v133
v163
o1
v133
v163
o2
o1
v134
v164
o1
v134
v164
C137
o16
o54
3
o2
o1
v135
v165
o1
v135
v165
o2
o1
v136
v166
o1
v136
v166
o2
o1
v137
v167
o1
v137
v167
C138
o16
o54
3
o2
o1
v138
v168
o1
v138
v168
o2
o1
v139
v169
o1
v139
v169
o2
o1
v140
v170
o1
v140
v170
C139
o16
o54
3
o2
o1
v141
v171
o1
v141
v171
o2
o1
v142
v172
o1
v142
v172
o2
o1
v143
v173
o1
v143
v173
C140
o16
o54
3
o2
o1
v144
v174
o1
v144
v174
o2
o1
v145
v175
o1
v145
v175
o2
o1
v146
v176
o1
v146
v176
C141
o16
o54
3
o2
o1
v147
v177
o1
v147
v177
o2
o1
v148
v178
o1
v148
v178
o2
o1
v149
v179
o1
v149
v179
C142
o16
o54
3
o2
o1
v150
v180
o1
v150
v180
o2
o1
v151
v181
o1
v151
v181
o2
o1
v152
v182
o1
v152
v182
C143
o16
o54
3
o2
o1
v153
v183
o1
v153
v183
o2
o1
v154
v184
o1
v154
v184
o2
o1
v155
v185
o1
v155
v185
C144
o16
o54
3
o2
o1
v156
v186
o1
v156
v186
o2
o1
v157
v187
o1
v157
v187
o2
o1
v158
v188
o1
v158
v188
C145
o16
o54
3
o2
o1
v159
v189
o1
v159
v189
o2
o1
v160
v190
o1
v160
v190
o2
o1
v161
v191
o1
v161
v191
C146
o16
o54
3
o2
o1
v162
v192
o1
v162
v192
o2
o1
v163
v193
o1
v163
v193
o2
o1
v164
v194
o1
v164
v194
C147
o16
o54
3
o2
o1
v165
v195
o1
v165
v195
o2
o1
v166
v196
o1
v166
v196
o2
o1
v167
v197
o1
v167
v197
C148
o16
o54
3
o2
o1
v168
v198
o1
v168
v198
o2
o1
v169
v199
o1
v169
v199
o2
o1
v170
v200
o1
v170
v200
C149
o16
o54
3
o2
o1
v171
v201
o1
v171
v201
o2
o1
v172
v202
o1
v172
v202
o2
o1
v173
v203
o1
v173
v203
C150
o16
o54
3
o2
o1
v174
v204
o1
v174
v204
o2
o1
v175
v205
o1
v175
v205
o2
o1
v176
v206
o1
v176
v206
C151
o16
o54
3
o2
o1
v177
v207
o1
v177
v207
o2
o1
v178
v208
o1
v178
v208
o2
o1
v179
v209
o1
v179
v209
C152
o16
o54
3
o2
o1
v180
v210
o1
v180
v210
o2
o1
v181
v211
o1
v181
v211
o2
o1
v182
v212
o1
v182
v212
C153
o16
o54
3
o2
o1
v183
v213
o1
v183
v213
o2
o1
v184
v214
o1
v184
v214
o2
o1
v185
v215
o1
v185
v215
C154
o16
o54
3
o2
o1
v186
v216
o1
v186
v216
o2
o1
v187
v217
o1
v187
v217
o2
o1
v188
v218
o1
v188
v218
C155
o16
o54
3
o2
o1
v189
v219
o1
v189
v219
o2
o1
v190
v220
o1
v190
v220
o2
o1
v191
v221
o1
v191
v221
C156
o16
o54
3
o2
o1
v192
v222
o1
v192
v222
o2
o1
v193
v223
o1
v193
v223
o2
o1
v194
v224
o1
v194
v224
C157
o16
o54
3
o2
o1
v195
v225
o1
v195
v225
o2
o1
v196
v226
o1
v196
v226
o2
o1
v197
v227
o1
v197
v227
C158
o16
o54
3
o2
o1
v198
v228
o1
v198
v228
o2
o1
v199
v229
o1
v199
v229
o2
o1
v200
v230
o1
v200
v230
C159
o16
o54
3
o2
o1
v201
v231
o1
v201
v231
o2
o1
v202
v232
o1
v202
v232
o2
o1
v203
v233
o1
v203
v233
C160
o16
o54
3
o2
o1
v204
v234
o1
v204
v234
o2
o1
v205
v235
o1
v205
v235
o2
o1
v206
v236
o1
v206
v236
C161
o16
o54
3
o2
o1
v207
v237
o1
v207
v237
o2
o1
v208
v238
o1
v208
v238
o2
o1
v209
v239
o1
v209
v239
C162
o16
o54
3
o2
o1
v210
v240
o1
v210
v240
o2
o1
v211
v241
o1
v211
v241
o2
o1
v212
v242
o1
v212
v242
C163
o16
o54
3
o2
o1
v213
v243
o1
v213
v243
o2
o1
v214
v244
o1
v214
v244
o2
o1
v215
v245
o1
v215
v245
C164
o16
o54
3
o2
o1
v216
v246
o1
v216
v246
o2
o1
v217
v247
o1
v217
v247
o2
o1
v218
v248
o1
v218
v248
C165
o16
o54
3
o2
o1
v219
v249
o1
v219
v249
o2
o1
v220
v250
o1
v220
v250
o2
o1
v221
v251
o1
v221
v251
C166
o16
o54
3
o2
o1
v222
v252
o1
v222
v252
o2
o1
v223
v253
o1
v223
v253
o2
o1
v224
v254
o1
v224
v254
C167
o16
o54
3
o2
o1
v225
v255
o1
v225
v255
o2
o1
v226
v256
o1
v226
v256
o2
o1
v227
v257
o1
v227
v257
C168
o16
o54
3
o2
o1
v228
v258
o1
v228
v258
o2
o1
v229
v259
o1
v229
v259
o2
o1
v230
v260
o1
v230
v260
C169
o16
o54
3
o2
o1
v231
v261
o1
v231
v261
o2
o1
v232
v262
o1
v232
v262
o2
o1
v233
v263
o1
v233
v263
C170
o16
o54
3
o2
o0
n-10
v234
o0
n-10
v234
o2
v235
v235
o2
v236
v236
C171
o16
o54
3
o2
o1
v237
v264
o1
v237
v264
o2
o1
v238
v265
o1
v238
v265
o2
o1
v239
v266
o1
v239
v266
C172
o16
o54
3
o2
o1
v240
v267
o1
v240
v267
o2
o1
v241
v268
o1
v241
v268
o2
o1
v242
v269
o1
v242
v269
C173
o16
o54
3
o2
o1
v243
v270
o1
v243
v270
o2
o1
v244
v271
o1
v244
v271
o2
o1
v245
v272
o1
v245
v272
C174
o16
o54
3
o2
o1
v246
v273
o1
v246
v273
o2
o1
v247
v274
o1
v247
v274
o2
o1
v248
v275
o1
v248
v275
C175
o16
o54
3
o2
o1
v249
v276
o1
v249
v276
o2
o1
v250
v277
o1
v250
v277
o2
o1
v251
v278
o1
v251
v278
C176
o16
o54
3
o2
o1
v252
v279
o1
v252
v279
o2
o1
v253
v280
o1
v253
v280
o2
o1
v254
v281
o1
v254
v281
C177
o16
o54
3
o2
o1
v255
v282
o1
v255
v282
o2
o1
v256
v283
o1
v256
v283
o2
o1
v257
v284
o1
v257
v284
C178
o16
o54
3
o2
o1
v258
v285
o1
v258
v285
o2
o1
v259
v286
o1
v259
v286
o2
o1
v260
v287
o1
v260
v287
C179
o16
o54
3
o2
o0
n-10
v261
o0
n-10
v261
o2
o0
n-10
v262
o0
n-10
v262
o2
v263
v263
O0 0
n0
k287
3
6
9
12
15
18
21
24
27
30
33
36
39
42
45
48
51
54
57
60
63
66
69
72
75
78
81
85
89
93
97
101
105
109
113
117
121
125
129
133
137
141
145
149
153
157
161
165
169
173
177
180
183
186
189
192
195
199
203
207
211
215
219
223
227
231
235
239
243
247
251
255
259
263
267
271
275
279
283
287
291
294
297
300
303
306
309
313
317
321
325
329
333
337
341
345
349
353
357
361
365
369
373
377
381
385
389
393
397
401
405
408
411
414
417
420
423
427
431
435
439
443
447
451
455
459
463
467
471
475
479
483
487
491
495
499
503
507
511
515
519
522
525
528
531
534
537
541
545
549
553
557
561
565
569
573
577
581
585
589
593
597
601
605
609
613
617
621
625
629
633
636
639
642
645
648
651
655
659
663
667
671
675
679
683
687
691
695
699
703
707
711
715
719
723
727
731
735
739
743
747
750
753
756
759
762
765
769
773
777
781
785
789
793
797
801
805
809
813
817
821
825
829
833
837
841
845
849
853
857
861
864
867
870
873
876
879
883
887
891
895
899
903
907
911
915
919
923
927
931
935
939
943
947
951
955
959
963
967
971
975
978
981
984
987
990
993
996
999
1002
1005
1008
1011
1014
1017
1020
1023
1026
1029
1032
1035
1038
1041
1044
1047
1050
1053
J0 3
0 0
1 0
2 0
J1 6
0 0
1 0
2 0
3 0
4 0
5 0
J2 6
3 0
4 0
5 0
6 0
7 0
8 0
J3 6
6 0
7 0
8 0
9 0
10 0
11 0
J4 6
9 0
10 0
11 0
12 0
13 0
14 0
J5 6
12 0
13 0
14 0
15 0
16 0
17 0
J6 6
15 0
16 0
17 0
18 0
19 0
20 0
J7 6
18 0
19 0
20 0
21 0
22 0
23 0
J8 3
21 0
22 0
23 0
J9 6
24 0
25 0
26 0
27 0
28 0
29 0
J10 6
27 0
28 0
29 0
30 0
31 0
32 0
J11 6
30 0
31 0
32 0
33 0
34 0
35 0
J12 6
33 0
34 0
35 0
36 0
37 0
38 0
J13 6
36 0
37 0
38 0
39 0
40 0
41 0
J14 6
39 0
40 0
41 0
42 0
43 0
44 0
J15 6
42 0
43 0
44 0
45 0
46 0
47 0
J16 6
45 0
46 0
47 0
48 0
49 0
50 0
J17 6
48 0
49 0
50 0
51 0
52 0
53 0
J18 6
54 0
55 0
56 0
57 0
58 0
59 0
J19 6
57 0
58 0
59 0
60 0
61 0
62 0
J20 6
60 0
61 0
62 0
63 0
64 0
65 0
J21 6
63 0
64 0
65 0
66 0
67 0
68 0
J22 6
66 0
67 0
68 0
69 0
70 0
71 0
J23 6
69 0
70 0
71 0
72 0
73 0
74 0
J24 6
72 0
73 0
74 0
75 0
76 0
77 0
J25 6
75 0
76 0
77 0
78 0
79 0
80 0
J26 6
78 0
79 0
80 0
81 0
82 0
83 0
J27 6
84 0
85 0
86 0
87 0
88 0
89 0
J28 6
87 0
88 0
89 0
90 0
91 0
92 0
J29 6
90 0
91 0
92 0
93 0
94 0
95 0
J30 6
93 0
94 0
95 0
96 0
97 0
98 0
J31 6
96 0
97 0
98 0
99 0
100 0
101 0
J32 6
99 0
100 0
101 0
102 0
103 0
104 0
J33 6
102 0
103 0
104 0
105 0
106 0
107 0
J34 6
105 0
106 0
107 0
108 0
109 0
110 0
J35 6
108 0
109 0
110 0
111 0
112 0
113 0
J36 6
114 0
115 0
116 0
117 0
118 0
119 0
J37 6
117 0
118 0
119 0
120 0
121 0
122 0
J38 6
120 0
121 0
122 0
123 0
124 0
125 0
J39 6
123 0
124 0
125 0
126 0
127 0
128 0
J40 6
126 0
127 0
128 0
129 0
130 0
131 0
J41 6
129 0
130 0
131 0
132 0
133 0
134 0
J42 6
132 0
133 0
134 0
135 0
136 0
137 0
J43 6
135 0
136 0
137 0
138 0
139 0
140 0
J44 6
138 0
139 0
140 0
141 0
142 0
143 0
J45 6
144 0
145 0
146 0
147 0
148 0
149 0
J46 6
147 0
148 0
149 0
150 0
151 0
152 0
J47 6
150 0
151 0
152 0
153 0
154 0
155 0
J48 6
153 0
154 0
155 0
156 0
157 0
158 0
J49 6
156 0
157 0
158 0
159 0
160 0
161 0
J50 6
159 0
160 0
161 0
162 0
163 0
164 0
J51 6
162 0
163 0
164 0
165 0
166 0
167 0
J52 6
165 0
166 0
167 0
168 0
169 0
170 0
J53 6
168 0
169 0
170 0
171 0
172 0
173 0
J54 6
174 0
175 0
176 0
177 0
178 0
179 0
J55 6
177 0
178 0
179 0
180 0
181 0
182 0
J56 6
180 0
181 0
182 0
183 0
184 0
185 0
J57 6
183 0
184 0
185 0
186 0
187 0
188 0
J58 6
186 0
187 0
188 0
189 0
190 0
191 0
J59 6
189 0
190 0
191 0
192 0
193 0
194 0
J60 6
192 0
193 0
194 0
195 0
196 0
197 0
J61 6
195 0
196 0
197 0
198 0
199 0
200 0
J62 6
198 0
199 0
200 0
201 0
202 0
203 0
J63 6
204 0
205 0
206 0
207 0
208 0
209 0
J64 6
207 0
208 0
209 0
210 0
211 0
212 0
J65 6
210 0
211 0
212 0
213 0
214 0
215 0
J66 6
213 0
214 0
215 0
216 0
217 0
218 0
J67 6
216 0
217 0
218 0
219 0
220 0
221 0
J68 6
219 0
220 0
221 0
222 0
223 0
224 0
J69 6
222 0
223 0
224 0
225 0
226 0
227 0
J70 6
225 0
226 0
227 0
228 0
229 0
230 0
J71 6
228 0
229 0
230 0
231 0
232 0
233 0
J72 6
234 0
235 0
236 0
237 0
238 0
239 0
J73 6
237 0
238 0
239 0
240 0
241 0
242 0
J74 6
240 0
241 0
242 0
243 0
244 0
245 0
J75 6
243 0
244 0
245 0
246 0
247 0
248 0
J76 6
246 0
247 0
248 0
249 0
250 0
251 0
J77 6
249 0
250 0
251 0
252 0
253 0
254 0
J78 6
252 0
253 0
254 0
255 0
256 0
257 0
J79 6
255 0
256 0
257 0
258 0
259 0
260 0
J80 6
258 0
259 0
260 0
261 0
262 0
263 0
J81 3
264 0
265 0
266 0
J82 6
264 0
265 0
266 0
267 0
268 0
269 0
J83 6
267 0
268 0
269 0
270 0
271 0
272 0
J84 6
270 0
271 0
272 0
273 0
274 0
275 0
J85 6
273 0
274 0
275 0
276 0
277 0
278 0
J86 6
276 0
277 0
278 0
279 0
280 0
281 0
J87 6
279 0
280 0
281 0
282 0
283 0
284 0
J88 6
282 0
283 0
284 0
285 0
286 0
287 0
J89 3
285 0
286 0
287 0
J90 3
24 0
25 0
26 0
J91 6
0 0
1 0
2 0
27 0
28 0
29 0
J92 6
3 0
4 0
5 0
30 0
31 0
32 0
J93 6
6 0
7 0
8 0
33 0
34 0
35 0
J94 6
9 0
10 0
11 0
36 0
37 0
38 0
J95 6
12 0
13 0
14 0
39 0
40 0
41 0
J96 6
15 0
16 0
17 0
42 0
43 0
44 0
J97 6
18 0
19 0
20 0
45 0
46 0
47 0
J98 6
21 0
22 0
23 0
48 0
49 0
50 0
J99 3
51 0
52 0
53 0
J100 6
24 0
25 0
26 0
54 0
55 0
56 0
J101 6
27 0
28 0
29 0
57 0
58 0
59 0
J102 6
30 0
31 0
32 0
60 0
61 0
62 0
J103 6
33 0
34 0
35 0
63 0
64 0
65 0
J104 6
36 0
37 0
38 0
66 0
67 0
68 0
J105 6
39 0
40 0
41 0
69 0
70 0
71 0
J106 6
42 0
43 0
44 0
72 0
73 0
74 0
J107 6
45 0
46 0
47 0
75 0
76 0
77 0
J108 6
48 0
49 0
50 0
78 0
79 0
80 0
J109 6
51 0
52 0
53 0
81 0
82 0
83 0
J110 6
54 0
55 0
56 0
84 0
85 0
86 0
J111 6
57 0
58 0
59 0
87 0
88 0
89 0
J112 6
60 0
61 0
62 0
90 0
91 0
92 0
J113 6
63 0
64 0
65 0
93 0
94 0
95 0
J114 6
66 0
67 0
68 0
96 0
97 0
98 0
J115 6
69 0
70 0
71 0
99 0
100 0
101 0
J116 6
72 0
73 0
74 0
102 0
103 0
104 0
J117 6
75 0
76 0
77 0
105 0
106 0
107 0
J118 6
78 0
79 0
80 0
108 0
109 0
110 0
J119 6
81 0
82 0
83 0
111 0
112 0
113 0
J120 6
84 0
85 0
86 0
114 0
115 0
116 0
J121 6
87 0
88 0
89 0
117 0
118 0
119 0
J122 6
90 0
91 0
92 0
120 0
121 0
122 0
J123 6
93 0
94 0
95 0
123 0
124 0
125 0
J124 6
96 0
97 0
98 0
126 0
127 0
128 0
J125 6
99 0
100 0
101 0
129 0
130 0
131 0
J126 6
102 0
103 0
104 0
132 0
133 0
134 0
J127 6
105 0
106 0
107 0
135 0
136 0
137 0
J128 6
108 0
109 0
110 0
138 0
139 0
140 0
J129 6
111 0
112 0
113 0
141 0
142 0
143 0
J130 6
114 0
115 0
116 0
144 0
145 0
146 0
J131 6
117 0
118 0
119 0
147 0
148 0
149 0
J132 6
120 0
121 0
122 0
150 0
151 0
152 0
J133 6
123 0
124 0
125 0
153 0
154 0
155 0
J134 6
126 0
127 0
128 0
156 0
157 0
158 0
J135 6
129 0
130 0
131 0
159 0
160 0
161 0
J136 6
132 0
133 0
134 0
162 0
163 0
164 0
J137 6
135 0
136 0
137 0
165 0
166 0
167 0
J138 6
138 0
139 0
140 0
168 0
169 0
170 0
J139 6
141 0
142 0
143 0
171 0
172 0
173 0
J140 6
144 0
145 0
146 0
174 0
175 0
176 0
J141 6
147 0
148 0
149 0
177 0
178 0
179 0
J142 6
150 0
151 0
152 0
180 0
181 0
182 0
J143 6
153 0
154 0
155 0
183 0
184 0
185 0
J144 6
156 0
157 0
158 0
186 0
187 0
188 0
J145 6
159 0
160 0
161 0
189 0
190 0
191 0
J146 6
162 0
163 0
164 0
192 0
193 0
194 0
J147 6
165 0
166 0
167 0
195 0
196 0
197 0
J148 6
168 0
169 0
170 0
198 0
199 0
200 0
J149 6
171 0
172 0
173 0
201 0
202 0
203 0
J150 6
174 0
175 0
176 0
204 0
205 0
206 0
J151 6
177 0
178 0
179 0
207 0
208 0
209 0
J152 6
180 0
181 0
182 0
210 0
211 0
212 0
J153 6
183 0
184 0
185 0
213 0
214 0
215 0
J154 6
186 0
187 0
188 0
216 0
217 0
218 0
J155 6
189 0
190 0
191 0
219 0
220 0
221 0
J156 6
192 0
193 0
194 0
222 0
223 0
224 0
J157 6
195 0
196 0
197 0
225 0
226 0
227 0
J158 6
198 0
199 0
200 0
228 0
229 0
230 0
J159 6
201 0
202 0
203 0
231 0
232 0
233 0
J160 6
204 0
205 0
206 0
234 0
235 0
236 0
J161 6
207 0
208 0
209 0
237 0
238 0
239 0
J162 6
210 0
211 0
212 0
240 0
241 0
242 0
J163 6
213 0
214 0
215 0
243 0
244 0
245 0
J164 6
216 0
217 0
218 0
246 0
247 0
248 0
J165 6
219 0
220 0
221 0
249 0
250 0
251 0
J166 6
222 0
223 0
224 0
252 0
253 0
254 0
J167 6
225 0
226 0
227 0
255 0
256 0
257 0
J168 6
228 0
229 0
230 0
258 0
259 0
260 0
J169 6
231 0
232 0
233 0
261 0
262 0
263 0
J170 3
234 0
235 0
236 0
J171 6
237 0
238 0
239 0
264 0
265 0
266 0
J172 6
240 0
241 0
242 0
267 0
268 0
269 0
J173 6
243 0
244 0
245 0
270 0
271 0
272 0
J174 6
246 0
247 0
248 0
273 0
274 0
275 0
J175 6
249 0
250 0
251 0
276 0
277 0
278 0
J176 6
252 0
253 0
254 0
279 0
280 0
281 0
J177 6
255 0
256 0
257 0
282 0
283 0
284 0
J178 6
258 0
259 0
260 0
285 0
286 0
287 0
J179 3
261 0
262 0
263 0
G0 96
2 1
5 1
8 1
11 1
14 1
17 1
20 1
23 1
26 1
29 1
32 1
35 1
38 1
41 1
44 1
47 1
50 1
53 1
56 1
59 1
62 1
65 1
68 1
71 1
74 1
77 1
80 1
83 1
86 1
89 1
92 1
95 1
98 1
101 1
104 1
107 1
110 1
113 1
116 1
119 1
122 1
125 1
128 1
131 1
134 1
137 1
140 1
143 1
146 1
149 1
152 1
155 1
158 1
161 1
164 1
167 1
170 1
173 1
176 1
179 1
182 1
185 1
188 1
191 1
194 1
197 1
200 1
203 1
206 1
209 1
212 1
215 1
218 1
221 1
224 1
227 1
230 1
233 1
236 1
239 1
242 1
245 1
248 1
251 1
254 1
257 1
260 1
263 1
266 1
269 1
272 1
275 1
278 1
281 1
284 1
287 1
